c colouring generated by benchmark framework
p edge 64 728
v 1 5
v 2 4
v 3 7
v 4 6
v 5 2
v 6 1
v 7 3
v 8 8
v 9 3
v 10 2
v 11 0
v 12 1
v 13 8
v 14 7
v 15 6
v 16 4
v 17 1
v 18 7
v 19 8
v 20 3
v 21 4
v 22 0
v 23 5
v 24 2
v 25 8
v 26 6
v 27 4
v 28 0
v 29 1
v 30 2
v 31 7
v 32 3
v 33 7
v 34 0
v 35 5
v 36 2
v 37 3
v 38 6
v 39 8
v 40 1
v 41 6
v 42 1
v 43 3
v 44 7
v 45 5
v 46 4
v 47 2
v 48 0
v 49 2
v 50 5
v 51 6
v 52 4
v 53 0
v 54 8
v 55 1
v 56 7
v 57 4
v 58 8
v 59 1
v 60 5
v 61 7
v 62 3
v 63 0
v 64 6
